11,9	0,0	6,4	8,8	0,0	0,0	0,0	0,0	0,0	11,7
19,9	19,5	0,0	13,2	13,2	0,0	0,0	11,3	0,0	0,0
0,0	0,0	9,1	0,0	9,4	15,9	0,0	0,0	8,1	0,0
9,8	0,0	13,8	0,0	0,0	0,0	7,2	0,0	0,0	0,0
0,0	6,9	0,0	6,8	9,1	0,0	0,0	18,1	0,0	0,0
0,0	14,5	12,0	0,0	14,2	10,3	0,0	0,0	19,0	0,0
0,0	19,8	0,0	14,6	0,0	0,0	13,2	0,0	0,0	19,2
19,9	0,0	15,6	0,0	0,0	0,0	0,0	0,0	0,0	17,5
0,0	6,4	0,0	12,9	5,2	0,0	0,0	9,1	0,0	0,0
0,0	0,0	10,6	0,0	0,0	8,9	9,2	0,0	0,0	14,4
									
3,5	4,4	4,8	2,9	3,0	3,8	3,7	5,0	4,4	4,7
